21	15.0	120.0	45216171
21	20.0	190.0	43937063
21	23.0	205.0	44187258
21	25.0	210.0	42285189
21	27.0	230.0	43643948
21	30.0	255.0	40702832
21	32.0	265.0	42143239
21	35.0	290.0	42163927
21	38.0	325.0	41679207
21	40.0	345.0	31580459
21	45.0	370.0	30900701
